32	0

0	1	2
5	1	3
5	1	4
4	1	5
1	1	6
1	2	7	10
2	1	8
6	1	9
9	1	11
10	1	11
10	1	12
5	2	13	14
8	1	15
7	2	15	17
2	1	16
5	1	18
5	1	18
1	1	19
7	1	20
7	1	21
3	1	22
7	2	23	24
4	1	25
8	1	25
7	1	26
3	1	27
6	2	28	29
9	1	31
1	1	30
6	1	31
1	1	32
0	0
